p cnf 14 64
4 7 13 0
-3 -13 14 0
5 11 -12 0
10 11 -12 0
4 6 7 0
-2 -10 13 0
2 5 10 0
2 -4 14 0
2 -11 -12 0
2 4 6 0
-9 -12 13 0
1 9 14 0
2 -3 5 0
-7 8 11 0
5 -6 9 0
-1 5 11 0
-7 8 10 0
-7 -12 -14 0
1 2 8 0
1 7 9 0
2 -10 -12 0
-3 10 -13 0
5 11 -13 0
7 -9 13 0
-4 -5 -10 0
-5 -9 -14 0
1 12 -13 0
4 -5 -12 0
-1 8 -11 0
-3 13 14 0
-8 10 -12 0
5 7 8 0
4 10 12 0
-3 4 7 0
-2 10 12 0
2 -5 -14 0
-2 -13 -14 0
5 7 9 0
-3 -10 11 0
-1 -7 -13 0
-3 13 -14 0
4 6 -7 0
-3 7 14 0
3 -11 14 0
4 8 -12 0
1 -9 11 0
5 10 12 0
8 12 14 0
7 9 12 0
7 -9 11 0
-1 -12 13 0
6 -11 -14 0
1 4 -10 0
-2 4 11 0
-4 10 -13 0
5 6 11 0
-6 -8 -13 0
-5 9 -13 0
-3 -6 -10 0
-4 -9 -11 0
-3 8 11 0
-10 11 13 0
-1 -12 -13 0
-2 3 -6 0
